30
0 1 0.74 0.23
0 2 0.74 0.18
0 3 0.64 0.24
0 4 0.51 0.28
0 5 0.68 0.35
0 6 0.64 0.31
0 7 0.52 0.18
0 8 0.78 0.07
0 9 0.42 0.34
0 10 0.3 0.26
0 11 0.5 0.19
0 12 0.44 0.31
0 13 0.54 0.26
0 14 0.64 0.13
0 15 0.4 0.14
0 16 0.78 0.29
0 17 0.56 0.36
0 18 0.58 0.05
0 19 0.49 0.17
0 20 0.52 0.25
0 21 0.8 0.28
0 22 0.64 0.24
0 23 0.65 0.25
0 24 0.74 0.28
0 25 0.26 0.18
0 26 0.53 0.19
0 27 0.58 0.25
0 28 0.44 0.18
0 29 0.57 0.33
1 2 0.69 0.11
1 3 0.64 0.29
1 4 0.44 0.15
1 5 0.64 0.33
1 6 0.41 0.08
1 7 0.52 0.29
1 8 0.62 0.21
1 9 0.6 0.26
1 10 0.56 0.11
1 11 0.43 0.09
1 12 0.55 0.25
1 13 0.62 0.17
1 14 0.66 0.1
1 15 0.44 0.15
1 16 0.52 0.26
1 17 0.53 0.2
1 18 0.48 0.28
1 19 0.49 0.26
1 20 0.55 0.26
1 21 0.84 0.25
1 22 0.26 0.2
1 23 0.58 0.15
1 24 0.72 0.25
1 25 0.48 0.26
1 26 0.57 0.16
1 27 0.32 0.03
1 28 0.72 0.27
1 29 0.46 0.1
2 3 0.5 0.28
2 4 0.5 0.2
2 5 0.38 0.27
2 6 0.68 0.19
2 7 0.65 0.34
2 8 0.62 0.2
2 9 0.72 0.37
2 10 0.64 0.16
2 11 0.56 0.14
2 12 0.77 0.25
2 13 0.81 0.22
2 14 0.54 0.17
2 15 0.38 0.04
2 16 0.85 0.21
2 17 0.82 0.26
2 18 0.59 0.23
2 19 0.37 0.16
2 20 0.46 0.28
2 21 0.4 0.18
2 22 0.56 0.28
2 23 0.64 0.2
2 24 0.59 0.32
2 25 0.48 0.36
2 26 0.51 0.11
2 27 0.51 0.08
2 28 0.77 0.32
2 29 0.84 0.21
3 4 0.7 0.18
3 5 0.44 0.38
3 6 0.73 0.31
3 7 0.78 0.42
3 8 0.42 0.17
3 9 0.22 0.18
3 10 0.74 0.22
3 11 0.5 0.2
3 12 0.46 0.3
3 13 0.6 0.38
3 14 0.76 0.28
3 15 0.53 0.32
3 16 0.74 0.3
3 17 0.76 0.18
3 18 0.63 0.29
3 19 0.48 0.27
3 20 0.48 0.2
3 21 0.34 0.1
3 22 0.78 0.26
3 23 0.72 0.2
3 24 0.68 0.24
3 25 0.56 0.28
3 26 0.4 0.26
3 27 0.6 0.26
3 28 0.78 0.3
3 29 0.58 0.32
4 5 0.26 0.2
4 6 0.76 0.23
4 7 0.46 0.34
4 8 0.6 0.24
4 9 0.62 0.22
4 10 0.3 0.04
4 11 0.69 0.12
4 12 0.72 0.26
4 13 0.77 0.2
4 14 0.52 0.2
4 15 0.47 0.24
4 16 0.58 0.12
4 17 0.5 0.24
4 18 0.69 0.33
4 19 0.43 0.21
4 20 0.38 0.25
4 21 0.58 0.23
4 22 0.46 0.08
4 23 0.14 0.13
4 24 0.6 0.35
4 25 0.53 0.38
4 26 0.34 0.22
4 27 0.58 0.12
4 28 0.42 0.24
4 29 0.74 0.25
5 6 0.78 0.41
5 7 0.51 0.5
5 8 0.44 0.28
5 9 0.36 0.24
5 10 0.56 0.24
5 11 0.43 0.32
5 12 0.52 0.44
5 13 0.51 0.4
5 14 0.78 0.36
5 15 0.7 0.28
5 16 0.59 0.2
5 17 0.74 0.44
5 18 0.64 0.34
5 19 0.69 0.38
5 20 0.55 0.36
5 21 0.58 0.42
5 22 0.66 0.28
5 23 0.4 0.33
5 24 0.7 0.51
5 25 0.6 0.3
5 26 0.58 0.3
5 27 0.32 0.3
5 28 0.68 0.33
5 29 0.81 0.4
6 7 0.5 0.24
6 8 0.52 0.28
6 9 0.69 0.18
6 10 0.88 0.19
6 11 0.6 0.17
6 12 0.76 0.33
6 13 0.82 0.25
6 14 0.78 0.18
6 15 0.74 0.23
6 16 0.86 0.34
6 17 0.69 0.28
6 18 0.48 0.36
6 19 0.53 0.18
6 20 0.84 0.3
6 21 0.74 0.21
6 22 0.44 0.24
6 23 0.72 0.23
6 24 0.59 0.33
6 25 0.7 0.18
6 26 0.64 0.24
6 27 0.62 0.11
6 28 0.52 0.26
6 29 0.16 0.02
7 8 0.74 0.25
7 9 0.6 0.42
7 10 0.54 0.34
7 11 0.55 0.22
7 12 0.54 0.38
7 13 0.53 0.32
7 14 0.69 0.3
7 15 0.56 0.32
7 16 0.92 0.35
7 17 0.75 0.46
7 18 0.74 0.23
7 19 0.44 0.35
7 20 0.67 0.4
7 21 0.73 0.38
7 22 0.5 0.42
7 23 0.5 0.28
7 24 0.76 0.45
7 25 0.67 0.36
7 26 0.69 0.29
7 27 0.44 0.26
7 28 0.72 0.32
7 29 0.66 0.26
8 9 0.64 0.3
8 10 0.48 0.26
8 11 0.34 0.12
8 12 0.55 0.28
8 13 0.36 0.28
8 14 0.34 0.2
8 15 0.6 0.17
8 16 0.52 0.29
8 17 0.7 0.35
8 18 0.58 0.12
8 19 0.32 0.1
8 20 0.5 0.18
8 21 0.63 0.27
8 22 0.56 0.23
8 23 0.73 0.18
8 24 0.52 0.34
8 25 0.55 0.25
8 26 0.56 0.26
8 27 0.45 0.18
8 28 0.49 0.18
8 29 0.68 0.3
9 10 0.56 0.26
9 11 0.6 0.3
9 12 0.54 0.29
9 13 0.38 0.22
9 14 0.78 0.35
9 15 0.52 0.34
9 16 0.71 0.34
9 17 0.7 0.3
9 18 0.63 0.34
9 19 0.57 0.27
9 20 0.26 0.12
9 21 0.56 0.22
9 22 0.78 0.14
9 23 0.5 0.24
9 24 0.56 0.42
9 25 0.34 0.16
9 26 0.62 0.35
9 27 0.49 0.29
9 28 0.58 0.3
9 29 0.53 0.16
10 11 0.62 0.14
10 12 0.56 0.3
10 13 0.58 0.16
10 14 0.7 0.21
10 15 0.54 0.2
10 16 0.56 0.16
10 17 0.48 0.28
10 18 0.74 0.31
10 19 0.72 0.25
10 20 0.6 0.29
10 21 0.76 0.27
10 22 0.53 0.12
10 23 0.44 0.17
10 24 0.56 0.36
10 25 0.56 0.37
10 26 0.64 0.26
10 27 0.51 0.08
10 28 0.72 0.28
10 29 0.72 0.21
11 12 0.21 0.16
11 13 0.41 0.2
11 14 0.62 0.08
11 15 0.63 0.18
11 16 0.52 0.17
11 17 0.36 0.24
11 18 0.54 0.24
11 19 0.53 0.17
11 20 0.34 0.18
11 21 0.64 0.16
11 22 0.34 0.2
11 23 0.58 0.06
11 24 0.53 0.23
11 25 0.52 0.34
11 26 0.5 0.14
11 27 0.11 0.06
11 28 0.51 0.3
11 29 0.44 0.19
12 13 0.46 0.22
12 14 0.68 0.2
12 15 0.44 0.24
12 16 0.73 0.24
12 17 0.57 0.3
12 18 0.48 0.26
12 19 0.45 0.31
12 20 0.55 0.34
12 21 0.64 0.32
12 22 0.32 0.18
12 23 0.79 0.22
12 24 0.59 0.35
12 25 0.66 0.45
12 26 0.57 0.14
12 27 0.32 0.22
12 28 0.72 0.34
12 29 0.6 0.35
13 14 0.44 0.13
13 15 0.63 0.24
13 16 0.55 0.23
13 17 0.4 0.22
13 18 0.46 0.31
13 19 0.6 0.37
13 20 0.53 0.34
13 21 0.7 0.3
13 22 0.4 0.28
13 23 0.76 0.26
13 24 0.36 0.24
13 25 0.72 0.38
13 26 0.5 0.13
13 27 0.3 0.14
13 28 0.78 0.38
13 29 0.68 0.27
14 15 0.26 0.17
14 16 0.66 0.16
14 17 0.73 0.3
14 18 0.69 0.18
14 19 0.66 0.25
14 20 0.6 0.26
14 21 0.54 0.24
14 22 0.56 0.28
14 23 0.42 0.14
14 24 0.42 0.15
14 25 0.56 0.31
14 26 0.39 0.06
14 27 0.51 0.13
14 28 0.7 0.31
14 29 0.64 0.2
15 16 0.47 0.21
15 17 0.71 0.3
15 18 0.43 0.19
15 19 0.67 0.2
15 20 0.64 0.3
15 21 0.43 0.22
15 22 0.3 0.3
15 23 0.44 0.18
15 24 0.68 0.32
15 25 0.59 0.32
15 26 0.13 0.11
15 27 0.74 0.12
15 28 0.72 0.32
15 29 0.58 0.25
16 17 0.64 0.36
16 18 0.77 0.34
16 19 0.76 0.31
16 20 0.64 0.35
16 21 0.56 0.33
16 22 0.63 0.2
16 23 0.44 0.23
16 24 0.48 0.31
16 25 0.63 0.47
16 26 0.34 0.1
16 27 0.63 0.23
16 28 0.34 0.3
16 29 0.7 0.36
17 18 0.8 0.32
17 19 0.58 0.29
17 20 0.46 0.18
17 21 0.76 0.08
17 22 0.7 0.32
17 23 0.6 0.18
17 24 0.54 0.42
17 25 0.7 0.36
17 26 0.72 0.35
17 27 0.47 0.23
17 28 0.85 0.28
17 29 0.8 0.3
18 19 0.3 0.2
18 20 0.65 0.22
18 21 0.4 0.32
18 22 0.46 0.25
18 23 0.56 0.3
18 24 0.82 0.33
18 25 0.53 0.23
18 26 0.56 0.24
18 27 0.43 0.3
18 28 0.82 0.23
18 29 0.53 0.38
19 20 0.65 0.23
19 21 0.49 0.21
19 22 0.62 0.13
19 23 0.55 0.11
19 24 0.53 0.38
19 25 0.23 0.21
19 26 0.64 0.27
19 27 0.42 0.23
19 28 0.52 0.28
19 29 0.69 0.2
20 21 0.3 0.1
20 22 0.68 0.23
20 23 0.24 0.12
20 24 0.6 0.41
20 25 0.49 0.28
20 26 0.63 0.32
20 27 0.23 0.23
20 28 0.44 0.3
20 29 0.78 0.28
21 22 0.58 0.29
21 23 0.44 0.1
21 24 0.74 0.34
21 25 0.72 0.38
21 26 0.56 0.29
21 27 0.53 0.22
21 28 0.6 0.2
21 29 0.58 0.22
22 23 0.6 0.21
22 24 0.46 0.43
22 25 0.44 0.3
22 26 0.43 0.3
22 27 0.45 0.2
22 28 0.58 0.16
22 29 0.28 0.22
23 24 0.46 0.29
23 25 0.39 0.28
23 26 0.48 0.2
23 27 0.47 0.12
23 28 0.28 0.24
23 29 0.64 0.25
24 25 0.71 0.42
24 26 0.58 0.21
24 27 0.64 0.28
24 28 0.42 0.38
24 29 0.73 0.31
25 26 0.46 0.37
25 27 0.6 0.29
25 28 0.29 0.25
25 29 0.65 0.2
26 27 0.61 0.19
26 28 0.68 0.37
26 29 0.7 0.26
27 28 0.58 0.24
27 29 0.55 0.13
28 29 0.36 0.24
